p cnf 350 619
-1 0
-350 0
-344 0
-338 0
-332 0
-326 0
-320 0
-314 0
-308 0
-302 0
-296 0
-290 0
-284 0
-278 0
-272 0
-266 0
-260 0
-250 0
-251 0
-252 0
-253 0
-254 0
-247 0
-248 0
10 0
-349 0
19 0
20 0
21 0
22 0
23 0
24 0
25 0
-28 0
-29 0
37 0
38 0
-241 0
-242 0
46 0
47 0
-343 0
48 0
55 0
56 0
57 0
64 0
65 0
66 0
-73 0
-74 0
-75 0
-76 0
-77 0
-235 0
-236 0
-82 0
-83 0
-337 0
-84 0
-85 0
-91 0
-92 0
-100 0
-101 0
-109 0
-118 0
-119 0
127 0
136 0
137 0
-229 0
-230 0
-153 0
-154 0
-155 0
-331 0
-156 0
-157 0
-158 0
-256 0
-257 0
-258 0
-259 0
-223 0
-224 0
-164 0
-325 0
-170 0
-176 0
-182 0
-188 0
-194 0
-217 0
-218 0
-319 0
-200 0
-206 0
-212 0
-211 0
-246 0
-348 0
-240 0
-342 0
-234 0
-313 0
-336 0
-228 0
-330 0
-160 0
-161 0
-162 0
-163 0
-222 0
-263 0
-205 0
-264 0
-307 0
-265 0
-324 0
-216 0
-318 0
-199 0
-245 0
-347 0
-239 0
-210 0
-341 0
-233 0
-301 0
-335 0
-312 0
-227 0
-329 0
-221 0
-167 0
-168 0
-204 0
-193 0
-169 0
-215 0
-306 0
-295 0
-270 0
-271 0
-323 0
-187 0
-244 0
-346 0
-238 0
-198 0
-340 0
-209 0
-289 0
-232 0
-334 0
-300 0
-311 0
-226 0
-328 0
-317 0
-203 0
-181 0
-192 0
-220 0
-283 0
-174 0
-294 0
-175 0
-277 0
-214 0
-186 0
-197 0
-288 0
-208 0
-299 0
-310 0
-305 0
-322 0
-180 0
-191 0
-202 0
-293 0
-282 0
-304 0
-316 0
-185 0
-196 0
-276 0
-287 0
-298 0
-190 0
-292 0
-179 0
-281 0
-173 0
-184 0
-286 0
-275 0
-178 0
-280 0
-269 0
-172 0
-274 0
-166 0
-268 0
-262 0
-315 213 219 0
315 -213 219 0
-145 2 0
145 -2 0
-99 315 0
146 -2 3 0
-146 2 3 0
146 2 -3 0
-146 -2 -3 0
147 -3 4 0
-147 3 4 0
147 3 -4 0
-147 -3 -4 0
5 -4 0
-5 4 0
6 -5 0
-6 5 0
150 -6 7 0
-150 6 7 0
150 6 -7 0
-150 -6 -7 0
8 -7 0
-8 7 0
152 -8 9 0
-152 8 9 0
152 8 -9 0
-152 -8 -9 0
99 -315 0
145 11 0
-90 309 0
-159 165 0
-145 -11 0
146 -11 12 0
-146 11 12 0
146 11 -12 0
-146 -11 -12 0
147 -12 13 0
-147 12 13 0
147 12 -13 0
-147 -12 -13 0
148 -13 14 0
-148 13 14 0
148 13 -14 0
-148 -13 -14 0
15 -14 0
-15 14 0
16 -15 0
-16 15 0
17 -16 0
-17 16 0
18 -17 0
-18 17 0
-303 -201 -207 0
303 201 -207 0
315 213 -219 0
-315 -213 -219 0
-261 -159 0
-291 -189 -195 0
291 189 -195 0
-291 189 195 0
-303 201 207 0
303 -201 207 0
-243 249 0
-345 -243 0
279 177 -183 0
151 26 0
-279 177 183 0
291 -189 195 0
-151 -26 0
27 -26 0
-27 26 0
-63 291 0
-345 -243 -249 0
345 243 -249 0
-345 243 249 0
-146 30 0
146 -30 0
345 -243 249 0
31 -30 0
-31 30 0
148 -31 32 0
-148 31 32 0
148 31 -32 0
-148 -31 -32 0
149 -32 33 0
-149 32 33 0
149 32 -33 0
-149 -32 -33 0
34 -33 0
-34 33 0
151 -34 35 0
-151 34 35 0
151 34 -35 0
-151 -34 -35 0
152 -35 36 0
-152 35 36 0
152 35 -36 0
-152 -35 -36 0
-144 345 0
144 -345 0
-225 231 0
146 39 0
-273 -171 -177 0
279 -177 183 0
-146 -39 0
40 -39 0
-40 39 0
41 -40 0
-41 40 0
149 -41 42 0
-149 41 42 0
149 41 -42 0
-149 -41 -42 0
150 -42 43 0
-150 42 43 0
150 42 -43 0
-150 -42 -43 0
151 -43 44 0
-151 43 44 0
151 43 -44 0
-151 -43 -44 0
45 -44 0
-45 44 0
-45 279 0
-81 303 0
81 -303 0
-195 201 0
45 -279 0
147 49 0
309 -207 213 0
-189 195 0
-147 -49 0
50 -49 0
-50 49 0
51 -50 0
-51 50 0
150 -51 52 0
-150 51 52 0
150 51 -52 0
-150 -51 -52 0
53 -52 0
-53 52 0
54 -53 0
-54 53 0
-279 -177 -183 0
117 -327 0
63 -291 0
-117 327 0
27 -267 0
147 58 0
-309 207 213 0
327 -225 231 0
-147 -58 0
59 -58 0
-59 58 0
149 -59 60 0
-149 59 60 0
149 59 -60 0
-149 -59 -60 0
150 -60 61 0
-150 60 61 0
150 60 -61 0
-150 -60 -61 0
151 -61 62 0
-151 61 62 0
151 61 -62 0
-151 -61 -62 0
63 -62 0
-63 62 0
-291 -189 0
-327 225 231 0
108 -321 0
-237 243 0
-339 -237 0
147 67 0
327 225 -231 0
-327 -225 -231 0
-147 -67 0
148 -67 68 0
-148 67 68 0
148 67 -68 0
-148 -67 -68 0
149 -68 69 0
-149 68 69 0
149 68 -69 0
-149 -68 -69 0
70 -69 0
-70 69 0
71 -70 0
-71 70 0
152 -71 72 0
-152 71 72 0
152 71 -72 0
-152 -71 -72 0
-108 321 0
321 -219 225 0
-321 -219 0
-219 225 0
-339 -237 -243 0
339 237 -243 0
-339 237 243 0
339 -237 243 0
-135 339 0
135 -339 0
-149 78 0
149 -78 0
-261 -159 -165 0
79 -78 0
-79 78 0
80 -79 0
-80 79 0
152 -80 81 0
-152 80 81 0
152 80 -81 0
-152 -80 -81 0
-273 171 177 0
-315 -213 0
261 159 -165 0
-261 159 165 0
-303 -201 0
-201 207 0
261 -159 165 0
-213 219 0
-148 86 0
148 -86 0
-321 -219 -225 0
149 -86 87 0
-149 86 87 0
149 86 -87 0
-149 -86 -87 0
88 -87 0
-88 87 0
151 -88 89 0
-151 88 89 0
151 88 -89 0
-151 -88 -89 0
90 -89 0
-90 89 0
-18 261 0
18 -261 0
-36 273 0
36 -273 0
-146 93 0
146 -93 0
273 -171 177 0
94 -93 0
-94 93 0
95 -94 0
-95 94 0
96 -95 0
-96 95 0
150 -96 97 0
-150 96 97 0
150 96 -97 0
-150 -96 -97 0
98 -97 0
-98 97 0
152 -98 99 0
-152 98 99 0
152 98 -99 0
-152 -98 -99 0
-279 -177 0
-177 183 0
321 219 -225 0
-321 219 225 0
-146 102 0
146 -102 0
285 183 -189 0
103 -102 0
-103 102 0
148 -103 104 0
-148 103 104 0
148 103 -104 0
-148 -103 -104 0
105 -104 0
-105 104 0
150 -105 106 0
-150 105 106 0
150 105 -106 0
-150 -105 -106 0
107 -106 0
-107 106 0
152 -107 108 0
-152 107 108 0
152 107 -108 0
-152 -107 -108 0
-231 237 0
-333 -231 0
-145 110 0
145 -110 0
54 -285 0
146 -110 111 0
-146 110 111 0
146 110 -111 0
-146 -110 -111 0
112 -111 0
-112 111 0
148 -112 113 0
-148 112 113 0
148 112 -113 0
-148 -112 -113 0
114 -113 0
-114 113 0
115 -114 0
-115 114 0
116 -115 0
-116 115 0
117 -116 0
-117 116 0
-273 -171 0
72 -297 0
-72 297 0
297 -195 201 0
-146 120 0
146 -120 0
-54 285 0
121 -120 0
-121 120 0
148 -121 122 0
-148 121 122 0
148 121 -122 0
-148 -121 -122 0
123 -122 0
-123 122 0
150 -123 124 0
-150 123 124 0
150 123 -124 0
-150 -123 -124 0
151 -124 125 0
-151 124 125 0
151 124 -125 0
-151 -124 -125 0
126 -125 0
-126 125 0
-333 -231 -237 0
145 128 0
333 231 -237 0
-333 231 237 0
-145 -128 0
146 -128 129 0
-146 128 129 0
146 128 -129 0
-146 -128 -129 0
147 -129 130 0
-147 129 130 0
147 129 -130 0
-147 -129 -130 0
131 -130 0
-131 130 0
149 -131 132 0
-149 131 132 0
149 131 -132 0
-149 -131 -132 0
133 -132 0
-133 132 0
134 -133 0
-134 133 0
152 -134 135 0
-152 134 135 0
152 134 -135 0
-152 -134 -135 0
333 -231 237 0
-126 333 0
126 -333 0
146 138 0
-165 171 0
-267 -165 0
-146 -138 0
139 -138 0
-139 138 0
148 -139 140 0
-148 139 140 0
148 139 -140 0
-148 -139 -140 0
149 -140 141 0
-149 140 141 0
149 140 -141 0
-149 -140 -141 0
150 -141 142 0
-150 141 142 0
150 141 -142 0
-150 -141 -142 0
143 -142 0
-143 142 0
144 -143 0
-144 143 0
-27 267 0
-297 195 201 0
-327 -225 0
-285 -183 -189 0
-285 183 189 0
285 -183 189 0
9 -255 0
-9 255 0
273 171 -177 0
-255 159 0
255 -159 0
-267 -165 -171 0
267 165 -171 0
-267 165 171 0
267 -165 171 0
-183 189 0
-285 -183 0
-297 -195 0
309 207 -213 0
297 195 -201 0
-297 -195 -201 0
-207 213 0
-309 -207 0
-309 -207 -213 0
-171 177 0
90 -309 0
